p edge 48 547
e 1 3
e 1 6
e 1 7
e 1 8
e 1 10
e 1 12
e 1 13
e 1 15
e 1 16
e 1 17
e 1 19
e 1 20
e 1 21
e 1 22
e 1 24
e 1 27
e 1 29
e 1 31
e 1 32
e 1 34
e 1 37
e 1 39
e 1 41
e 1 42
e 1 44
e 1 46
e 1 48
e 2 3
e 2 5
e 2 6
e 2 8
e 2 12
e 2 13
e 2 14
e 2 15
e 2 16
e 2 18
e 2 20
e 2 22
e 2 24
e 2 27
e 2 28
e 2 29
e 2 31
e 2 34
e 2 35
e 2 38
e 2 39
e 2 40
e 2 44
e 2 46
e 2 47
e 2 48
e 3 6
e 3 9
e 3 11
e 3 14
e 3 15
e 3 16
e 3 18
e 3 19
e 3 23
e 3 25
e 3 26
e 3 27
e 3 31
e 3 33
e 3 35
e 3 36
e 3 39
e 3 42
e 3 43
e 3 44
e 3 48
e 4 7
e 4 11
e 4 13
e 4 14
e 4 15
e 4 16
e 4 17
e 4 19
e 4 22
e 4 23
e 4 24
e 4 25
e 4 27
e 4 29
e 4 30
e 4 31
e 4 32
e 4 34
e 4 35
e 4 37
e 4 38
e 4 43
e 4 44
e 4 46
e 4 48
e 5 7
e 5 8
e 5 9
e 5 11
e 5 16
e 5 17
e 5 18
e 5 21
e 5 25
e 5 26
e 5 28
e 5 31
e 5 32
e 5 33
e 5 35
e 5 38
e 5 39
e 5 40
e 5 41
e 5 42
e 5 44
e 5 45
e 5 48
e 6 8
e 6 9
e 6 10
e 6 11
e 6 12
e 6 13
e 6 14
e 6 18
e 6 19
e 6 20
e 6 22
e 6 23
e 6 29
e 6 31
e 6 32
e 6 34
e 6 36
e 6 39
e 6 40
e 6 41
e 6 43
e 6 45
e 6 46
e 6 47
e 6 48
e 7 8
e 7 14
e 7 19
e 7 21
e 7 23
e 7 25
e 7 27
e 7 30
e 7 31
e 7 32
e 7 35
e 7 42
e 7 43
e 7 44
e 7 45
e 7 46
e 7 47
e 7 48
e 8 9
e 8 10
e 8 11
e 8 14
e 8 15
e 8 18
e 8 21
e 8 24
e 8 25
e 8 26
e 8 27
e 8 29
e 8 31
e 8 32
e 8 37
e 8 41
e 8 45
e 8 47
e 9 12
e 9 13
e 9 14
e 9 15
e 9 16
e 9 17
e 9 19
e 9 22
e 9 23
e 9 24
e 9 25
e 9 30
e 9 34
e 9 36
e 9 38
e 9 39
e 9 41
e 9 44
e 9 46
e 10 11
e 10 12
e 10 14
e 10 16
e 10 17
e 10 19
e 10 20
e 10 21
e 10 22
e 10 23
e 10 29
e 10 30
e 10 34
e 10 37
e 10 42
e 11 13
e 11 14
e 11 17
e 11 19
e 11 20
e 11 21
e 11 23
e 11 25
e 11 27
e 11 29
e 11 30
e 11 31
e 11 32
e 11 33
e 11 35
e 11 36
e 11 37
e 11 38
e 11 39
e 11 41
e 11 43
e 11 46
e 12 13
e 12 15
e 12 16
e 12 17
e 12 19
e 12 20
e 12 21
e 12 23
e 12 24
e 12 27
e 12 30
e 12 31
e 12 32
e 12 38
e 12 39
e 12 40
e 12 41
e 12 42
e 12 43
e 12 45
e 12 47
e 13 16
e 13 19
e 13 21
e 13 22
e 13 23
e 13 26
e 13 27
e 13 28
e 13 30
e 13 32
e 13 33
e 13 38
e 13 40
e 13 41
e 13 42
e 13 43
e 13 45
e 13 46
e 13 47
e 13 48
e 14 16
e 14 17
e 14 19
e 14 20
e 14 21
e 14 23
e 14 32
e 14 33
e 14 35
e 14 40
e 14 42
e 14 44
e 14 45
e 14 46
e 14 48
e 15 17
e 15 18
e 15 19
e 15 26
e 15 27
e 15 28
e 15 32
e 15 35
e 15 36
e 15 37
e 15 41
e 15 46
e 15 47
e 15 48
e 16 18
e 16 19
e 16 22
e 16 23
e 16 25
e 16 28
e 16 29
e 16 30
e 16 31
e 16 32
e 16 36
e 16 37
e 16 38
e 16 41
e 16 42
e 16 43
e 16 44
e 17 19
e 17 23
e 17 24
e 17 26
e 17 27
e 17 28
e 17 29
e 17 31
e 17 34
e 17 35
e 17 41
e 17 43
e 17 45
e 17 46
e 18 20
e 18 21
e 18 23
e 18 25
e 18 26
e 18 28
e 18 29
e 18 32
e 18 33
e 18 35
e 18 37
e 18 38
e 18 46
e 18 47
e 18 48
e 19 30
e 19 37
e 19 40
e 19 46
e 19 48
e 20 21
e 20 22
e 20 25
e 20 30
e 20 32
e 20 33
e 20 34
e 20 36
e 20 37
e 20 38
e 20 39
e 20 44
e 20 46
e 20 47
e 20 48
e 21 22
e 21 24
e 21 25
e 21 26
e 21 27
e 21 30
e 21 37
e 21 38
e 21 39
e 21 40
e 21 42
e 21 45
e 21 47
e 21 48
e 22 30
e 22 31
e 22 32
e 22 34
e 22 37
e 22 40
e 22 41
e 22 42
e 22 43
e 22 44
e 22 45
e 23 29
e 23 30
e 23 31
e 23 34
e 23 39
e 23 43
e 23 46
e 23 47
e 24 28
e 24 29
e 24 30
e 24 31
e 24 32
e 24 33
e 24 34
e 24 37
e 24 38
e 24 39
e 24 40
e 24 41
e 24 45
e 24 46
e 25 26
e 25 39
e 25 40
e 25 42
e 25 43
e 25 45
e 25 46
e 25 48
e 26 28
e 26 29
e 26 36
e 26 37
e 26 38
e 26 39
e 26 43
e 26 45
e 26 48
e 27 29
e 27 31
e 27 32
e 27 35
e 27 42
e 27 44
e 27 45
e 27 47
e 28 29
e 28 30
e 28 33
e 28 35
e 28 37
e 28 38
e 28 42
e 28 43
e 29 31
e 29 33
e 29 34
e 29 35
e 29 36
e 29 37
e 29 38
e 29 39
e 29 41
e 29 44
e 29 48
e 30 31
e 30 32
e 30 40
e 30 42
e 30 43
e 30 46
e 30 47
e 31 32
e 31 36
e 31 41
e 31 42
e 31 45
e 31 48
e 32 33
e 32 35
e 32 36
e 32 37
e 32 38
e 32 42
e 33 34
e 33 35
e 33 36
e 33 38
e 33 40
e 33 41
e 33 42
e 33 44
e 33 45
e 33 47
e 34 37
e 34 38
e 34 42
e 34 43
e 34 44
e 34 46
e 34 47
e 34 48
e 35 36
e 35 37
e 35 38
e 35 39
e 35 42
e 35 44
e 35 47
e 35 48
e 36 37
e 36 38
e 36 39
e 36 41
e 36 42
e 36 43
e 37 38
e 37 39
e 37 40
e 37 42
e 38 40
e 38 43
e 38 46
e 38 47
e 38 48
e 39 40
e 39 41
e 39 42
e 39 44
e 39 45
e 39 46
e 40 44
e 40 45
e 40 47
e 41 46
e 41 47
e 42 43
e 42 44
e 42 45
e 42 46
e 42 48
e 43 46
e 44 46
e 45 46
e 45 47
e 47 48
